p cnf 255 977
c p weight 12 -1 0
c p weight -12 1 0
c p weight 14 6.12323399573676603586882014729198302312846062338790031898128063403419218957424163818359375E-17 0
c p weight -14 1 0
c p weight 15 1 0
c p weight -15 1 0
c p weight 16 -1 0
c p weight -16 1 0
c p weight 18 -1 0
c p weight -18 1 0
c p weight 20 -1 0
c p weight -20 1 0
c p weight 22 6.12323399573676603586882014729198302312846062338790031898128063403419218957424163818359375E-17 0
c p weight -22 1 0
c p weight 23 1 0
c p weight -23 1 0
c p weight 24 -1 0
c p weight -24 1 0
c p weight 26 -1 0
c p weight -26 1 0
c p weight 28 -1 0
c p weight -28 1 0
c p weight 30 6.12323399573676603586882014729198302312846062338790031898128063403419218957424163818359375E-17 0
c p weight -30 1 0
c p weight 31 1 0
c p weight -31 1 0
c p weight 32 -1 0
c p weight -32 1 0
c p weight 34 -1 0
c p weight -34 1 0
c p weight 36 -1 0
c p weight -36 1 0
c p weight 38 6.12323399573676603586882014729198302312846062338790031898128063403419218957424163818359375E-17 0
c p weight -38 1 0
c p weight 39 1 0
c p weight -39 1 0
c p weight 40 -1 0
c p weight -40 1 0
c p weight 42 -1 0
c p weight -42 1 0
c p weight 43 -1 0
c p weight -43 1 0
c p weight 45 0.1950903220161283313505151681965799070894718170166015625 0
c p weight -45 1 0
c p weight 46 -0.9807852804032304305792422383092343807220458984375 0
c p weight -46 1 0
c p weight 47 -1 0
c p weight -47 1 0
c p weight 50 -1 0
c p weight -50 1 0
c p weight 52 0.1950903220161283313505151681965799070894718170166015625 0
c p weight -52 1 0
c p weight 53 0.9807852804032304305792422383092343807220458984375 0
c p weight -53 1 0
c p weight 54 -1 0
c p weight -54 1 0
c p weight 57 -1 0
c p weight -57 1 0
c p weight 59 0.1950903220161283313505151681965799070894718170166015625 0
c p weight -59 1 0
c p weight 60 -0.9807852804032304305792422383092343807220458984375 0
c p weight -60 1 0
c p weight 61 -1 0
c p weight -61 1 0
c p weight 63 0.9238795325112867384831361050601117312908172607421875 0
c p weight -63 1 0
c p weight 64 0.382683432365089781779232680491986684501171112060546875 0
c p weight -64 1 0
c p weight 65 -1 0
c p weight -65 1 0
c p weight 68 -1 0
c p weight -68 1 0
c p weight 70 0.9238795325112867384831361050601117312908172607421875 0
c p weight -70 1 0
c p weight 71 -0.382683432365089781779232680491986684501171112060546875 0
c p weight -71 1 0
c p weight 72 -1 0
c p weight -72 1 0
c p weight 75 -1 0
c p weight -75 1 0
c p weight 77 0.9238795325112867384831361050601117312908172607421875 0
c p weight -77 1 0
c p weight 78 0.382683432365089781779232680491986684501171112060546875 0
c p weight -78 1 0
c p weight 79 -1 0
c p weight -79 1 0
c p weight 81 0.70710678118654752440084436210485 0
c p weight -81 1 0
c p weight 82 -1 0
c p weight -82 1 0
c p weight 85 -1 0
c p weight -85 1 0
c p weight 87 0.70710678118654752440084436210485 0
c p weight -87 1 0
c p weight 88 -1 0
c p weight -88 1 0
c p weight 91 -1 0
c p weight -91 1 0
c p weight 93 0.70710678118654752440084436210485 0
c p weight -93 1 0
c p weight 94 -1 0
c p weight -94 1 0
c p weight 97 -1 0
c p weight -97 1 0
c p weight 100 -1 0
c p weight -100 1 0
c p weight 103 -1 0
c p weight -103 1 0
c p weight 105 0.70710678118654752440084436210485 0
c p weight -105 1 0
c p weight 106 -1 0
c p weight -106 1 0
c p weight 108 0.9238795325112867384831361050601117312908172607421875 0
c p weight -108 1 0
c p weight 109 -0.382683432365089781779232680491986684501171112060546875 0
c p weight -109 1 0
c p weight 110 -1 0
c p weight -110 1 0
c p weight 112 -1 0
c p weight -112 1 0
c p weight 115 -1 0
c p weight -115 1 0
c p weight 117 -1 0
c p weight -117 1 0
c p weight 120 -1 0
c p weight -120 1 0
c p weight 122 -1 0
c p weight -122 1 0
c p weight 125 -1 0
c p weight -125 1 0
c p weight 128 -1 0
c p weight -128 1 0
c p weight 131 -1 0
c p weight -131 1 0
c p weight 133 -1 0
c p weight -133 1 0
c p weight 135 6.12323399573676603586882014729198302312846062338790031898128063403419218957424163818359375E-17 0
c p weight -135 1 0
c p weight 136 1 0
c p weight -136 1 0
c p weight 137 -1 0
c p weight -137 1 0
c p weight 139 -1 0
c p weight -139 1 0
c p weight 142 -1 0
c p weight -142 1 0
c p weight 144 0.70710678118654752440084436210485 0
c p weight -144 1 0
c p weight 145 -1 0
c p weight -145 1 0
c p weight 148 -1 0
c p weight -148 1 0
c p weight 150 0.70710678118654752440084436210485 0
c p weight -150 1 0
c p weight 151 -1 0
c p weight -151 1 0
c p weight 153 -1 0
c p weight -153 1 0
c p weight 155 6.12323399573676603586882014729198302312846062338790031898128063403419218957424163818359375E-17 0
c p weight -155 1 0
c p weight 156 1 0
c p weight -156 1 0
c p weight 157 -1 0
c p weight -157 1 0
c p weight 159 -1 0
c p weight -159 1 0
c p weight 162 -1 0
c p weight -162 1 0
c p weight 164 0.9238795325112867384831361050601117312908172607421875 0
c p weight -164 1 0
c p weight 165 0.382683432365089781779232680491986684501171112060546875 0
c p weight -165 1 0
c p weight 166 -1 0
c p weight -166 1 0
c p weight 169 -1 0
c p weight -169 1 0
c p weight 171 0.9238795325112867384831361050601117312908172607421875 0
c p weight -171 1 0
c p weight 172 -0.382683432365089781779232680491986684501171112060546875 0
c p weight -172 1 0
c p weight 173 -1 0
c p weight -173 1 0
c p weight 175 0.70710678118654752440084436210485 0
c p weight -175 1 0
c p weight 176 -1 0
c p weight -176 1 0
c p weight 179 -1 0
c p weight -179 1 0
c p weight 181 0.70710678118654752440084436210485 0
c p weight -181 1 0
c p weight 182 -1 0
c p weight -182 1 0
c p weight 185 -1 0
c p weight -185 1 0
c p weight 187 0.70710678118654752440084436210485 0
c p weight -187 1 0
c p weight 188 -1 0
c p weight -188 1 0
c p weight 190 -1 0
c p weight -190 1 0
c p weight 192 6.12323399573676603586882014729198302312846062338790031898128063403419218957424163818359375E-17 0
c p weight -192 1 0
c p weight 193 1 0
c p weight -193 1 0
c p weight 194 -1 0
c p weight -194 1 0
c p weight 196 -1 0
c p weight -196 1 0
c p weight 198 0.9807852804032304305792422383092343807220458984375 0
c p weight -198 1 0
c p weight 199 -0.195090322016128248083788321309839375317096710205078125 0
c p weight -199 1 0
c p weight 200 -1 0
c p weight -200 1 0
c p weight 203 -1 0
c p weight -203 1 0
c p weight 205 0.9807852804032304305792422383092343807220458984375 0
c p weight -205 1 0
c p weight 206 0.195090322016128248083788321309839375317096710205078125 0
c p weight -206 1 0
c p weight 207 -1 0
c p weight -207 1 0
c p weight 210 -1 0
c p weight -210 1 0
c p weight 212 0.9807852804032304305792422383092343807220458984375 0
c p weight -212 1 0
c p weight 213 -0.195090322016128248083788321309839375317096710205078125 0
c p weight -213 1 0
c p weight 214 -1 0
c p weight -214 1 0
c p weight 216 0.9238795325112867384831361050601117312908172607421875 0
c p weight -216 1 0
c p weight 217 -0.382683432365089781779232680491986684501171112060546875 0
c p weight -217 1 0
c p weight 218 -1 0
c p weight -218 1 0
c p weight 221 -1 0
c p weight -221 1 0
c p weight 223 0.9238795325112867384831361050601117312908172607421875 0
c p weight -223 1 0
c p weight 224 0.382683432365089781779232680491986684501171112060546875 0
c p weight -224 1 0
c p weight 225 -1 0
c p weight -225 1 0
c p weight 228 -1 0
c p weight -228 1 0
c p weight 230 0.9238795325112867384831361050601117312908172607421875 0
c p weight -230 1 0
c p weight 231 -0.382683432365089781779232680491986684501171112060546875 0
c p weight -231 1 0
c p weight 232 -1 0
c p weight -232 1 0
c p weight 234 0.70710678118654752440084436210485 0
c p weight -234 1 0
c p weight 235 -1 0
c p weight -235 1 0
c p weight 238 -1 0
c p weight -238 1 0
c p weight 240 0.70710678118654752440084436210485 0
c p weight -240 1 0
c p weight 241 -1 0
c p weight -241 1 0
c p weight 244 -1 0
c p weight -244 1 0
c p weight 246 0.70710678118654752440084436210485 0
c p weight -246 1 0
c p weight 247 -1 0
c p weight -247 1 0
c p weight 249 -1 0
c p weight -249 1 0
c p weight 251 6.12323399573676603586882014729198302312846062338790031898128063403419218957424163818359375E-17 0
c p weight -251 1 0
c p weight 252 1 0
c p weight -252 1 0
c p weight 253 -1 0
c p weight -253 1 0
c p weight 255 -1 0
c p weight -255 1 0
-9 0
-7 0
-5 0
-3 0
-1 0
11 1 -2 0
11 -1 2 0
-11 1 2 0
-11 -1 -2 0
-12 1 0
-12 2 0
12 -1 -2 0
13 -1 11 0
-13 1 11 0
-14 11 0
13 -14 -1 0
-13 -14 1 0
13 14 1 -11 0
-13 14 -1 -11 0
-15 11 0
13 -15 1 0
-13 -15 -1 0
13 15 -1 -11 0
-13 15 1 -11 0
-16 13 0
-16 11 0
-16 -1 0
16 -13 1 -11 0
17 13 -11 0
17 -13 11 0
-17 13 11 0
-17 -13 -11 0
-18 13 0
-18 11 0
18 -13 -11 0
19 3 -4 0
19 -3 4 0
-19 3 4 0
-19 -3 -4 0
-20 3 0
-20 4 0
20 -3 -4 0
21 -3 19 0
-21 3 19 0
-22 19 0
21 -22 -3 0
-21 -22 3 0
21 22 3 -19 0
-21 22 -3 -19 0
-23 19 0
21 -23 3 0
-21 -23 -3 0
21 23 -3 -19 0
-21 23 3 -19 0
-24 21 0
-24 19 0
-24 -3 0
24 -21 3 -19 0
25 21 -19 0
25 -21 19 0
-25 21 19 0
-25 -21 -19 0
-26 21 0
-26 19 0
26 -21 -19 0
27 5 -6 0
27 -5 6 0
-27 5 6 0
-27 -5 -6 0
-28 5 0
-28 6 0
28 -5 -6 0
29 -5 27 0
-29 5 27 0
-30 27 0
29 -30 -5 0
-29 -30 5 0
29 30 5 -27 0
-29 30 -5 -27 0
-31 27 0
29 -31 5 0
-29 -31 -5 0
29 31 -5 -27 0
-29 31 5 -27 0
-32 29 0
-32 27 0
-32 -5 0
32 -29 5 -27 0
33 29 -27 0
33 -29 27 0
-33 29 27 0
-33 -29 -27 0
-34 29 0
-34 27 0
34 -29 -27 0
35 7 -8 0
35 -7 8 0
-35 7 8 0
-35 -7 -8 0
-36 7 0
-36 8 0
36 -7 -8 0
37 -7 35 0
-37 7 35 0
-38 35 0
37 -38 -7 0
-37 -38 7 0
37 38 7 -35 0
-37 38 -7 -35 0
-39 35 0
37 -39 7 0
-37 -39 -7 0
37 39 -7 -35 0
-37 39 7 -35 0
-40 37 0
-40 35 0
-40 -7 0
40 -37 7 -35 0
41 37 -35 0
41 -37 35 0
-41 37 35 0
-41 -37 -35 0
-42 37 0
-42 35 0
42 -37 -35 0
43 -10 0
-43 10 0
44 9 -10 0
-44 9 10 0
-45 9 0
44 -45 -10 0
-44 -45 10 0
44 45 -9 10 0
-44 45 -9 -10 0
-46 9 0
44 -46 10 0
-44 -46 -10 0
44 46 -9 -10 0
-44 46 -9 10 0
-47 9 0
-47 10 0
-47 -44 0
47 44 -9 -10 0
48 9 -13 0
48 -9 13 0
-48 9 13 0
-48 -9 -13 0
49 44 -17 0
49 -44 17 0
-49 44 17 0
-49 -44 -17 0
-50 9 0
-50 17 0
-50 13 -44 0
-50 -13 44 0
50 -9 13 44 -17 0
50 -9 -13 -44 -17 0
51 48 -17 0
-51 48 17 0
-52 48 0
51 -52 -17 0
-51 -52 17 0
51 52 -48 17 0
-51 52 -48 -17 0
-53 48 0
51 -53 17 0
-51 -53 -17 0
51 53 -48 -17 0
-51 53 -48 17 0
-54 48 0
-54 17 0
-54 -51 0
54 51 -48 -17 0
55 9 -48 0
55 -9 48 0
-55 9 48 0
-55 -9 -48 0
56 49 -51 0
56 -49 51 0
-56 49 51 0
-56 -49 -51 0
-57 9 0
-57 51 0
-57 48 -49 0
-57 -48 49 0
57 -9 48 49 -51 0
57 -9 -48 -49 -51 0
58 55 -51 0
-58 55 51 0
-59 55 0
58 -59 -51 0
-58 -59 51 0
58 59 -55 51 0
-58 59 -55 -51 0
-60 55 0
58 -60 51 0
-58 -60 -51 0
58 60 -55 -51 0
-58 60 -55 51 0
-61 55 0
-61 51 0
-61 -58 0
61 58 -55 -51 0
62 9 -56 0
-62 9 56 0
-63 9 0
62 -63 -56 0
-62 -63 56 0
62 63 -9 56 0
-62 63 -9 -56 0
-64 9 0
62 -64 56 0
-62 -64 -56 0
62 64 -9 -56 0
-62 64 -9 56 0
-65 9 0
-65 56 0
-65 -62 0
65 62 -9 -56 0
66 9 -21 0
66 -9 21 0
-66 9 21 0
-66 -9 -21 0
67 62 -25 0
67 -62 25 0
-67 62 25 0
-67 -62 -25 0
-68 9 0
-68 25 0
-68 21 -62 0
-68 -21 62 0
68 -9 21 62 -25 0
68 -9 -21 -62 -25 0
69 66 -25 0
-69 66 25 0
-70 66 0
69 -70 -25 0
-69 -70 25 0
69 70 -66 25 0
-69 70 -66 -25 0
-71 66 0
69 -71 25 0
-69 -71 -25 0
69 71 -66 -25 0
-69 71 -66 25 0
-72 66 0
-72 25 0
-72 -69 0
72 69 -66 -25 0
73 9 -66 0
73 -9 66 0
-73 9 66 0
-73 -9 -66 0
74 67 -69 0
74 -67 69 0
-74 67 69 0
-74 -67 -69 0
-75 9 0
-75 69 0
-75 66 -67 0
-75 -66 67 0
75 -9 66 67 -69 0
75 -9 -66 -67 -69 0
76 73 -69 0
-76 73 69 0
-77 73 0
76 -77 -69 0
-76 -77 69 0
76 77 -73 69 0
-76 77 -73 -69 0
-78 73 0
76 -78 69 0
-76 -78 -69 0
76 78 -73 -69 0
-76 78 -73 69 0
-79 73 0
-79 69 0
-79 -76 0
79 76 -73 -69 0
80 9 -74 0
-80 9 74 0
81 -9 0
-81 9 0
-82 9 0
-82 74 0
-82 -80 0
82 80 -9 -74 0
83 9 -29 0
83 -9 29 0
-83 9 29 0
-83 -9 -29 0
84 80 -33 0
84 -80 33 0
-84 80 33 0
-84 -80 -33 0
-85 9 0
-85 33 0
-85 29 -80 0
-85 -29 80 0
85 -9 29 80 -33 0
85 -9 -29 -80 -33 0
86 83 -33 0
-86 83 33 0
87 -83 0
-87 83 0
-88 86 0
-88 83 0
-88 -33 0
88 -86 -83 33 0
89 9 -83 0
89 -9 83 0
-89 9 83 0
-89 -9 -83 0
90 84 -86 0
90 -84 86 0
-90 84 86 0
-90 -84 -86 0
-91 9 0
-91 86 0
-91 83 -84 0
-91 -83 84 0
91 -9 83 84 -86 0
91 -9 -83 -84 -86 0
92 89 -86 0
-92 89 86 0
93 -89 0
-93 89 0
-94 89 0
-94 86 0
-94 -92 0
94 92 -89 -86 0
95 73 -89 0
95 -73 89 0
-95 73 89 0
-95 -73 -89 0
96 76 -92 0
96 -76 92 0
-96 76 92 0
-96 -76 -92 0
-97 73 0
-97 92 0
-97 89 -76 0
-97 -89 76 0
97 -73 89 76 -92 0
97 -73 -89 -76 -92 0
98 95 -73 0
98 -95 73 0
-98 95 73 0
-98 -95 -73 0
99 92 -96 0
99 -92 96 0
-99 92 96 0
-99 -92 -96 0
-100 95 0
-100 96 0
-100 73 -92 0
-100 -73 92 0
100 -95 73 92 -96 0
100 -95 -73 -92 -96 0
101 98 -95 0
101 -98 95 0
-101 98 95 0
-101 -98 -95 0
102 96 -99 0
102 -96 99 0
-102 96 99 0
-102 -96 -99 0
-103 98 0
-103 99 0
-103 95 -96 0
-103 -95 96 0
103 -98 95 96 -99 0
103 -98 -95 -96 -99 0
104 98 -102 0
-104 98 102 0
105 -98 0
-105 98 0
-106 104 0
-106 98 0
-106 -102 0
106 -104 -98 102 0
107 101 -99 0
-107 101 99 0
-108 101 0
107 -108 -99 0
-107 -108 99 0
107 108 -101 99 0
-107 108 -101 -99 0
-109 101 0
107 -109 99 0
-107 -109 -99 0
107 109 -101 -99 0
-107 109 -101 99 0
-110 101 0
-110 99 0
-110 -107 0
110 107 -101 -99 0
111 9 -90 0
111 -9 90 0
-111 9 90 0
-111 -9 -90 0
-112 9 0
-112 90 0
112 -9 -90 0
113 9 -37 0
113 -9 37 0
-113 9 37 0
-113 -9 -37 0
114 111 -41 0
114 -111 41 0
-114 111 41 0
-114 -111 -41 0
-115 9 0
-115 41 0
-115 37 -111 0
-115 -37 111 0
115 -9 37 111 -41 0
115 -9 -37 -111 -41 0
116 113 -41 0
116 -113 41 0
-116 113 41 0
-116 -113 -41 0
-117 113 0
-117 -41 0
117 -113 41 0
118 9 -113 0
118 -9 113 0
-118 9 113 0
-118 -9 -113 0
119 114 -116 0
119 -114 116 0
-119 114 116 0
-119 -114 -116 0
-120 9 0
-120 116 0
-120 113 -114 0
-120 -113 114 0
120 -9 113 114 -116 0
120 -9 -113 -114 -116 0
121 118 -116 0
121 -118 116 0
-121 118 116 0
-121 -118 -116 0
-122 118 0
-122 116 0
122 -118 -116 0
123 55 -118 0
123 -55 118 0
-123 55 118 0
-123 -55 -118 0
124 58 -121 0
124 -58 121 0
-124 58 121 0
-124 -58 -121 0
-125 55 0
-125 121 0
-125 118 -58 0
-125 -118 58 0
125 -55 118 58 -121 0
125 -55 -118 -58 -121 0
126 123 -55 0
126 -123 55 0
-126 123 55 0
-126 -123 -55 0
127 121 -124 0
127 -121 124 0
-127 121 124 0
-127 -121 -124 0
-128 123 0
-128 124 0
-128 55 -121 0
-128 -55 121 0
128 -123 55 121 -124 0
128 -123 -55 -121 -124 0
129 126 -123 0
129 -126 123 0
-129 126 123 0
-129 -126 -123 0
130 124 -127 0
130 -124 127 0
-130 124 127 0
-130 -124 -127 0
-131 126 0
-131 127 0
-131 123 -124 0
-131 -123 124 0
131 -126 123 124 -127 0
131 -126 -123 -124 -127 0
132 126 -130 0
132 -126 130 0
-132 126 130 0
-132 -126 -130 0
-133 126 0
-133 130 0
133 -126 -130 0
134 -126 132 0
-134 126 132 0
-135 132 0
134 -135 -126 0
-134 -135 126 0
134 135 126 -132 0
-134 135 -126 -132 0
-136 132 0
134 -136 126 0
-134 -136 -126 0
134 136 -126 -132 0
-134 136 126 -132 0
-137 134 0
-137 132 0
-137 -126 0
137 -134 126 -132 0
138 134 -132 0
138 -134 132 0
-138 134 132 0
-138 -134 -132 0
-139 134 0
-139 132 0
139 -134 -132 0
140 98 -134 0
140 -98 134 0
-140 98 134 0
-140 -98 -134 0
141 104 -138 0
141 -104 138 0
-141 104 138 0
-141 -104 -138 0
-142 98 0
-142 138 0
-142 134 -104 0
-142 -134 104 0
142 -98 134 104 -138 0
142 -98 -134 -104 -138 0
143 140 -138 0
-143 140 138 0
144 -140 0
-144 140 0
-145 140 0
-145 138 0
-145 -143 0
145 143 -140 -138 0
146 98 -140 0
146 -98 140 0
-146 98 140 0
-146 -98 -140 0
147 141 -143 0
147 -141 143 0
-147 141 143 0
-147 -141 -143 0
-148 98 0
-148 143 0
-148 140 -141 0
-148 -140 141 0
148 -98 140 141 -143 0
148 -98 -140 -141 -143 0
149 146 -143 0
-149 146 143 0
150 -146 0
-150 146 0
-151 149 0
-151 146 0
-151 -143 0
151 -149 -146 143 0
152 98 -147 0
152 -98 147 0
-152 98 147 0
-152 -98 -147 0
-153 98 0
-153 147 0
153 -98 -147 0
154 -98 152 0
-154 98 152 0
-155 152 0
154 -155 -98 0
-154 -155 98 0
154 155 98 -152 0
-154 155 -98 -152 0
-156 152 0
154 -156 98 0
-154 -156 -98 0
154 156 -98 -152 0
-154 156 98 -152 0
-157 154 0
-157 152 0
-157 -98 0
157 -154 98 -152 0
158 154 -152 0
158 -154 152 0
-158 154 152 0
-158 -154 -152 0
-159 154 0
-159 152 0
159 -154 -152 0
160 101 -146 0
160 -101 146 0
-160 101 146 0
-160 -101 -146 0
161 107 -149 0
161 -107 149 0
-161 107 149 0
-161 -107 -149 0
-162 101 0
-162 149 0
-162 146 -107 0
-162 -146 107 0
162 -101 146 107 -149 0
162 -101 -146 -107 -149 0
163 160 -149 0
-163 160 149 0
-164 160 0
163 -164 -149 0
-163 -164 149 0
163 164 -160 149 0
-163 164 -160 -149 0
-165 160 0
163 -165 149 0
-163 -165 -149 0
163 165 -160 -149 0
-163 165 -160 149 0
-166 160 0
-166 149 0
-166 -163 0
166 163 -160 -149 0
167 101 -160 0
167 -101 160 0
-167 101 160 0
-167 -101 -160 0
168 161 -163 0
168 -161 163 0
-168 161 163 0
-168 -161 -163 0
-169 101 0
-169 163 0
-169 160 -161 0
-169 -160 161 0
169 -101 160 161 -163 0
169 -101 -160 -161 -163 0
170 167 -163 0
-170 167 163 0
-171 167 0
170 -171 -163 0
-170 -171 163 0
170 171 -167 163 0
-170 171 -167 -163 0
-172 167 0
170 -172 163 0
-170 -172 -163 0
170 172 -167 -163 0
-170 172 -167 163 0
-173 167 0
-173 163 0
-173 -170 0
173 170 -167 -163 0
174 101 -168 0
-174 101 168 0
175 -101 0
-175 101 0
-176 174 0
-176 101 0
-176 -168 0
176 -174 -101 168 0
177 101 -154 0
177 -101 154 0
-177 101 154 0
-177 -101 -154 0
178 174 -158 0
178 -174 158 0
-178 174 158 0
-178 -174 -158 0
-179 101 0
-179 158 0
-179 154 -174 0
-179 -154 174 0
179 -101 154 174 -158 0
179 -101 -154 -174 -158 0
180 177 -158 0
-180 177 158 0
181 -177 0
-181 177 0
-182 177 0
-182 158 0
-182 -180 0
182 180 -177 -158 0
183 101 -177 0
183 -101 177 0
-183 101 177 0
-183 -101 -177 0
184 178 -180 0
184 -178 180 0
-184 178 180 0
-184 -178 -180 0
-185 101 0
-185 180 0
-185 177 -178 0
-185 -177 178 0
185 -101 177 178 -180 0
185 -101 -177 -178 -180 0
186 183 -180 0
-186 183 180 0
187 -183 0
-187 183 0
-188 186 0
-188 183 0
-188 -180 0
188 -186 -183 180 0
189 101 -184 0
189 -101 184 0
-189 101 184 0
-189 -101 -184 0
-190 101 0
-190 184 0
190 -101 -184 0
191 -101 189 0
-191 101 189 0
-192 189 0
191 -192 -101 0
-191 -192 101 0
191 192 101 -189 0
-191 192 -101 -189 0
-193 189 0
191 -193 101 0
-191 -193 -101 0
191 193 -101 -189 0
-191 193 101 -189 0
-194 191 0
-194 189 0
-194 -101 0
194 -191 101 -189 0
195 191 -189 0
195 -191 189 0
-195 191 189 0
-195 -191 -189 0
-196 191 0
-196 189 0
196 -191 -189 0
197 129 -127 0
-197 129 127 0
-198 129 0
197 -198 -127 0
-197 -198 127 0
197 198 -129 127 0
-197 198 -129 -127 0
-199 129 0
197 -199 127 0
-197 -199 -127 0
197 199 -129 -127 0
-197 199 -129 127 0
-200 129 0
-200 127 0
-200 -197 0
200 197 -129 -127 0
201 129 -167 0
201 -129 167 0
-201 129 167 0
-201 -129 -167 0
202 197 -170 0
202 -197 170 0
-202 197 170 0
-202 -197 -170 0
-203 129 0
-203 170 0
-203 167 -197 0
-203 -167 197 0
203 -129 167 197 -170 0
203 -129 -167 -197 -170 0
204 201 -170 0
-204 201 170 0
-205 201 0
204 -205 -170 0
-204 -205 170 0
204 205 -201 170 0
-204 205 -201 -170 0
-206 201 0
204 -206 170 0
-204 -206 -170 0
204 206 -201 -170 0
-204 206 -201 170 0
-207 201 0
-207 170 0
-207 -204 0
207 204 -201 -170 0
208 129 -201 0
208 -129 201 0
-208 129 201 0
-208 -129 -201 0
209 202 -204 0
209 -202 204 0
-209 202 204 0
-209 -202 -204 0
-210 129 0
-210 204 0
-210 201 -202 0
-210 -201 202 0
210 -129 201 202 -204 0
210 -129 -201 -202 -204 0
211 208 -204 0
-211 208 204 0
-212 208 0
211 -212 -204 0
-211 -212 204 0
211 212 -208 204 0
-211 212 -208 -204 0
-213 208 0
211 -213 204 0
-211 -213 -204 0
211 213 -208 -204 0
-211 213 -208 204 0
-214 208 0
-214 204 0
-214 -211 0
214 211 -208 -204 0
215 129 -209 0
-215 129 209 0
-216 129 0
215 -216 -209 0
-215 -216 209 0
215 216 -129 209 0
-215 216 -129 -209 0
-217 129 0
215 -217 209 0
-215 -217 -209 0
215 217 -129 -209 0
-215 217 -129 209 0
-218 129 0
-218 209 0
-218 -215 0
218 215 -129 -209 0
219 129 -183 0
219 -129 183 0
-219 129 183 0
-219 -129 -183 0
220 215 -186 0
220 -215 186 0
-220 215 186 0
-220 -215 -186 0
-221 129 0
-221 186 0
-221 183 -215 0
-221 -183 215 0
221 -129 183 215 -186 0
221 -129 -183 -215 -186 0
222 219 -186 0
-222 219 186 0
-223 219 0
222 -223 -186 0
-222 -223 186 0
222 223 -219 186 0
-222 223 -219 -186 0
-224 219 0
222 -224 186 0
-222 -224 -186 0
222 224 -219 -186 0
-222 224 -219 186 0
-225 219 0
-225 186 0
-225 -222 0
225 222 -219 -186 0
226 129 -219 0
226 -129 219 0
-226 129 219 0
-226 -129 -219 0
227 220 -222 0
227 -220 222 0
-227 220 222 0
-227 -220 -222 0
-228 129 0
-228 222 0
-228 219 -220 0
-228 -219 220 0
228 -129 219 220 -222 0
228 -129 -219 -220 -222 0
229 226 -222 0
-229 226 222 0
-230 226 0
229 -230 -222 0
-229 -230 222 0
229 230 -226 222 0
-229 230 -226 -222 0
-231 226 0
229 -231 222 0
-229 -231 -222 0
229 231 -226 -222 0
-229 231 -226 222 0
-232 226 0
-232 222 0
-232 -229 0
232 229 -226 -222 0
233 129 -227 0
-233 129 227 0
234 -129 0
-234 129 0
-235 233 0
-235 129 0
-235 -227 0
235 -233 -129 227 0
236 129 -191 0
236 -129 191 0
-236 129 191 0
-236 -129 -191 0
237 233 -195 0
237 -233 195 0
-237 233 195 0
-237 -233 -195 0
-238 129 0
-238 195 0
-238 191 -233 0
-238 -191 233 0
238 -129 191 233 -195 0
238 -129 -191 -233 -195 0
239 236 -195 0
-239 236 195 0
240 -236 0
-240 236 0
-241 236 0
-241 195 0
-241 -239 0
241 239 -236 -195 0
242 129 -236 0
242 -129 236 0
-242 129 236 0
-242 -129 -236 0
243 237 -239 0
243 -237 239 0
-243 237 239 0
-243 -237 -239 0
-244 129 0
-244 239 0
-244 236 -237 0
-244 -236 237 0
244 -129 236 237 -239 0
244 -129 -236 -237 -239 0
245 242 -239 0
-245 242 239 0
246 -242 0
-246 242 0
-247 245 0
-247 242 0
-247 -239 0
247 -245 -242 239 0
248 129 -243 0
248 -129 243 0
-248 129 243 0
-248 -129 -243 0
-249 129 0
-249 243 0
249 -129 -243 0
250 -129 248 0
-250 129 248 0
-251 248 0
250 -251 -129 0
-250 -251 129 0
250 251 129 -248 0
-250 251 -129 -248 0
-252 248 0
250 -252 129 0
-250 -252 -129 0
250 252 -129 -248 0
-250 252 129 -248 0
-253 250 0
-253 248 0
-253 -129 0
253 -250 129 -248 0
254 250 -248 0
254 -250 248 0
-254 250 248 0
-254 -250 -248 0
-255 250 0
-255 248 0
255 -250 -248 0
-208 0
-226 0
-229 0
-242 0
-245 0
-250 0
-254 0
-9 0
-119 0
